interdiction/MCDM/NO_CORR/GEN_FROM_60/15_ITEMS_1000_GEN/K5015W12.KNP.mps
NAME          BLANK   
ROWS
 N  OBJROW
 L  R0000000
COLUMNS
    C0000000  OBJROW     -754.         R0000000  86.         
    C0000001  OBJROW     -951.         R0000000  927.        
    C0000002  OBJROW     -363.         R0000000  196.        
    C0000003  OBJROW     -975.         R0000000  367.        
    C0000004  OBJROW     -118.         R0000000  616.        
    C0000005  OBJROW     -77.          R0000000  459.        
    C0000006  OBJROW     -84.          R0000000  936.        
    C0000007  OBJROW     -869.         R0000000  740.        
    C0000008  OBJROW     -227.         R0000000  845.        
    C0000009  OBJROW     -139.         R0000000  653.        
    C0000010  OBJROW     -975.         R0000000  263.        
    C0000011  OBJROW     -610.         R0000000  507.        
    C0000012  OBJROW     -776.         R0000000  568.        
    C0000013  OBJROW     -176.         R0000000  77.         
    C0000014  OBJROW     -278.         R0000000  315.        
RHS
    RHS       R0000000  13900.      
BOUNDS
 BV BOUND     C0000000  1.          
 BV BOUND     C0000001  1.          
 BV BOUND     C0000002  1.          
 BV BOUND     C0000003  1.          
 BV BOUND     C0000004  1.          
 BV BOUND     C0000005  1.          
 BV BOUND     C0000006  1.          
 BV BOUND     C0000007  1.          
 BV BOUND     C0000008  1.          
 BV BOUND     C0000009  1.          
 BV BOUND     C0000010  1.          
 BV BOUND     C0000011  1.          
 BV BOUND     C0000012  1.          
 BV BOUND     C0000013  1.          
 BV BOUND     C0000014  1.          
ENDATA
