data/MCDM/NO_CORR/GEN_FROM_60/15_ITEMS_1000_GEN/K5015W12.KNP.txt
N 15
M 16
LC 15
LC 16
LC 17
LC 18
LC 19
LC 20
LC 21
LC 22
LC 23
LC 24
LC 25
LC 26
LC 27
LC 28
LC 29
LR 1
LR 2
LR 3
LR 4
LR 5
LR 6
LR 7
LR 8
LR 9
LR 10
LR 11
LR 12
LR 13
LR 14
LR 15
LR 16
LO -754
LO -951
LO -363
LO -975
LO -118
LO -77
LO -84
LO -869
LO -227
LO -139
LO -975
LO -610
LO -776
LO -176
LO -278
OS 1
IC 400
IC 810
IC 945
IC 18
IC 665
IC 544
IC 714
IC 165
IC 894
IC 375
IC 812
IC 741
IC 229
IC 925
IC 487
IB 4362
